Version identifier: 12.10.0.0 | 2019-11-26 | 843d4de
CPXPARAM_WorkMem                                 28672
Tried aggregator 2 times.
MIP Presolve eliminated 15 rows and 0 columns.
MIP Presolve added 28 rows and 0 columns.
Aggregator did 40 substitutions.
Reduced MIP has 75 rows, 70 columns, and 304 nonzeros.
Reduced MIP has 70 binaries, 0 generals, 0 SOSs, and 0 indicators.
Presolve time = 0,00 sec. (0,63 ticks)
Found incumbent of value 55,000000 after 0,00 sec. (0,72 ticks)
Probing time = 0,00 sec. (0,36 ticks)
Tried aggregator 1 time.
Detecting symmetries...
Reduced MIP has 75 rows, 70 columns, and 304 nonzeros.
Reduced MIP has 70 binaries, 0 generals, 0 SOSs, and 0 indicators.
Presolve time = 0,00 sec. (0,25 ticks)
Probing time = 0,00 sec. (0,36 ticks)
Clique table members: 272.
MIP emphasis: balance optimality and feasibility.
MIP search method: dynamic search.
Parallel mode: deterministic, using up to 16 threads.
Root relaxation solution time = 0,00 sec. (0,17 ticks)

        Nodes                                         Cuts/
   Node  Left     Objective  IInf  Best Integer    Best Bound    ItCnt     Gap

*     0+    0                           55,0000        0,0000           100,00%
*     0+    0                           53,0000        0,0000           100,00%
      0     0       30,0000    68       53,0000       30,0000       30   43,40%
      0     0       40,1250    68       53,0000      Cuts: 65       87   24,29%
      0     0       42,1800    68       53,0000      Cuts: 59      136   20,42%
*     0+    0                           52,0000       42,1800            18,88%
      0     0        cutoff             52,0000       52,0000      136    0,00%
Elapsed time = 0,03 sec. (5,98 ticks, tree = 0,01 MB, solutions = 3)

Clique cuts applied:  4
Cover cuts applied:  2
Gomory fractional cuts applied:  14

Root node processing (before b&c):
  Real time             =    0,03 sec. (5,99 ticks)
Parallel b&c, 16 threads:
  Real time             =    0,00 sec. (0,00 ticks)
  Sync time (average)   =    0,00 sec.
  Wait time (average)   =    0,00 sec.
                          ------------
Total (root+branch&cut) =    0,03 sec. (5,99 ticks)
